	1	2	3	4	5	6	7	8	9	10	11	12	13	14	15	16	17	18	19	20	21	22	23	24	25	26	27	28	29	30	31	
1	-	-	-	-	-	5	-	-	-	-	-	-	-	-	-	-	-	-	-	-	-	-	-	-	-	-	-	-	-	-	-	
2	-	-	-	6	-	5	-	-	-	11	-	-	-	-	-	-	-	-	-	-	-	-	-	-	-	-	-	-	-	-	-	
3	-	-	-	6	-	5	-	14	-	11	-	-	-	19	-	-	-	-	-	-	-	-	-	-	-	-	-	-	-	-	-	
4	-	-	-	6	-	5	-	14	-	11	-	11	-	19	-	17	-	-	-	25	-	-	-	-	-	-	-	-	-	-	-	
5	-	5	-	6	-	5	-	10	-	11	-	11	-	16	-	17	-	22	-	25	-	30	-	-	-	-	-	-	-	-	-	
6	-	5	2	6	7	5	8	10	7	11	12	11	13	16	13	17	18	22	19	25	24	30	27	-	32	-	-	-	-	-	-	
7	-	5	2	6	7	5	8	10	7	11	12	11	13	16	13	17	18	18	19	23	20	24	25	29	26	32	31	37	34	-	39	
